c DCNF-Autarky [version 0.0.1]. 
c Copyright (c) 2018-2019 Swansea University. 
c 
c Input QBF/DQBF path: Rintanen18//sortnetsort6.v.stepl.006.qdimacs
c Output SAT Translation Path: /tmp/sortnetsort6.v.stepl.006.qdimacs-dcnfAutarky.dimacs
c Input Clause Count (tautology free): 1838
c
c Performing E1-Autarky iteration.
c Remaining clauses count after E-Reduction: 1718
c
c Performing A1-Autarky iteration.
c Running Lingeling ... 
c
c Remaining clauses count after A-Reduction: 1697
c
c Performing E1-Autarky iteration.
c Remaining clauses count after E-Reduction: 1697
c
c Performing A1-Autarky iteration.
c Running Lingeling ... 
c
c Remaining clauses count after A-Reduction: 1697
c
c Input Parameter (command line, file): 
c input filename   Rintanen18//sortnetsort6.v.stepl.006.qdimacs
c output filename  /tmp/sortnetsort6.v.stepl.006.qdimacs-dcnfAutarky.dimacs
c autarky level    1
c conformity level 0
c encoding type    2
c no.of var        563
c no.of clauses    1838
c no.of taut cls   0
c 
c Output Parameters: 
c remaining no.of clauses  1697
c
c filename pn pc autarky ntaut rpa rpe rpcdiff result
c "Rintanen18//sortnetsort6.v.stepl.006.qdimacs" 563 1838 "E1+A1" 0 6 486 141 "RED" 
c Total time taken 1 secs.
c
p cnf 563 1697
e 50 51 52 53 54 55 56 57 58 59 60 61 62 63 64 65 66 67 68 69 70 71 72 73 74 75 76 77 78 79 80 81 82 83 84 85 86 87 88 89 90 91 92 93 94 95 96 97 98 99 100 101 102 103 104 105 106 107 108 109 110 111 112 113 114 115 116 117 118 119 120 121 122 123 124 125 126 127 128 129 130 131 132 133 134 135 136 137 138 139 0
a 140 1 2 3 4 5 6 0
e 7 8 9 10 11 12 13 14 15 16 17 18 19 20 21 22 23 24 25 26 27 28 29 30 31 32 33 34 35 36 37 38 39 40 41 42 43 44 45 46 47 48 49 141 142 143 144 145 146 147 148 149 150 151 152 153 154 155 156 157 158 159 160 161 162 163 164 165 166 167 168 169 170 171 172 173 174 175 176 177 178 179 180 181 182 183 184 185 186 187 188 189 190 191 192 193 194 195 196 197 198 199 200 201 202 203 204 205 206 207 208 209 210 211 212 213 214 215 216 217 218 219 220 221 222 223 224 225 226 227 228 229 230 231 232 233 234 235 236 237 238 239 240 241 242 243 244 245 246 247 248 249 250 251 252 253 254 255 256 257 258 259 260 261 262 263 264 265 266 267 268 269 270 271 272 273 274 275 276 277 278 279 280 281 282 283 284 285 286 287 288 289 290 291 292 293 294 295 296 297 298 299 300 301 302 303 304 305 306 307 308 309 310 311 312 313 314 315 316 317 318 319 320 321 322 323 324 325 326 327 328 329 330 331 332 333 334 335 336 337 338 339 340 341 342 343 344 345 346 347 348 349 350 351 352 353 354 355 356 357 358 359 360 361 362 363 364 365 366 367 368 369 370 371 372 373 374 375 376 377 378 379 380 381 382 383 384 385 386 387 388 389 390 391 392 393 394 395 396 397 398 399 400 401 402 403 404 405 406 407 408 409 410 411 412 413 414 415 416 417 418 419 420 421 422 423 424 425 426 427 428 429 430 431 432 433 434 435 436 437 438 439 440 441 442 443 444 445 446 447 448 449 450 451 452 453 454 455 456 457 458 459 460 461 462 463 464 465 466 467 468 469 470 471 472 473 474 475 476 477 478 479 480 481 482 483 484 485 486 487 488 489 490 491 492 493 494 495 496 497 498 499 500 501 502 503 504 505 506 507 508 509 510 511 512 513 514 515 516 517 518 519 520 521 522 523 524 525 526 527 528 529 530 531 532 533 534 535 536 537 538 539 540 541 542 543 544 545 546 547 548 549 550 551 552 553 554 555 556 557 558 559 560 561 562 563 0
-43 44 0
-44 45 0
-45 46 0
-46 47 0
-47 48 0
1 -8 0
-1 8 188 187 186 185 184 0
-188 50 0
-188 -2 0
-188 1 0
-50 -1 2 188 0
-187 51 0
-187 -3 0
-187 1 0
-51 -1 3 187 0
-186 52 0
-186 -4 0
-186 1 0
-52 -1 4 186 0
-185 53 0
-185 -5 0
-185 1 0
-53 -1 5 185 0
-184 54 0
-184 -6 0
-184 1 0
-54 -1 6 184 0
2 -9 189 0
-2 9 193 192 191 190 0
-189 50 0
-189 -2 0
-189 1 0
-50 -1 2 189 0
-193 55 0
-193 -3 0
-193 2 0
-55 -2 3 193 0
-192 56 0
-192 -4 0
-192 2 0
-56 -2 4 192 0
-191 57 0
-191 -5 0
-191 2 0
-57 -2 5 191 0
-190 58 0
-190 -6 0
-190 2 0
-58 -2 6 190 0
3 -10 195 194 0
-3 10 198 197 196 0
-195 51 0
-195 -3 0
-195 1 0
-51 -1 3 195 0
-194 55 0
-194 -3 0
-194 2 0
-55 -2 3 194 0
-198 59 0
-198 -4 0
-198 3 0
-59 -3 4 198 0
-197 60 0
-197 -5 0
-197 3 0
-60 -3 5 197 0
-196 61 0
-196 -6 0
-196 3 0
-61 -3 6 196 0
4 -11 201 200 199 0
-4 11 203 202 0
-201 52 0
-201 -4 0
-201 1 0
-52 -1 4 201 0
-200 56 0
-200 -4 0
-200 2 0
-56 -2 4 200 0
-199 59 0
-199 -4 0
-199 3 0
-59 -3 4 199 0
-203 62 0
-203 -5 0
-203 4 0
-62 -4 5 203 0
-202 63 0
-202 -6 0
-202 4 0
-63 -4 6 202 0
5 -12 207 206 205 204 0
-5 12 208 0
-207 53 0
-207 -5 0
-207 1 0
-53 -1 5 207 0
-206 57 0
-206 -5 0
-206 2 0
-57 -2 5 206 0
-205 60 0
-205 -5 0
-205 3 0
-60 -3 5 205 0
-204 62 0
-204 -5 0
-204 4 0
-62 -4 5 204 0
-208 64 0
-208 -6 0
-208 5 0
-64 -5 6 208 0
6 -13 213 212 211 210 209 0
-6 13 0
-213 54 0
-213 -6 0
-213 1 0
-54 -1 6 213 0
-212 58 0
-212 -6 0
-212 2 0
-58 -2 6 212 0
-211 61 0
-211 -6 0
-211 3 0
-61 -3 6 211 0
-210 63 0
-210 -6 0
-210 4 0
-63 -4 6 210 0
-209 64 0
-209 -6 0
-209 5 0
-64 -5 6 209 0
-50 -1 2 -8 0
-50 -1 2 9 0
-51 -1 3 -8 0
-51 -1 3 10 0
-52 -1 4 -8 0
-52 -1 4 11 0
-53 -1 5 -8 0
-53 -1 5 12 0
-54 -1 6 -8 0
-54 -1 6 13 0
-55 -2 3 -9 0
-55 -2 3 10 0
-56 -2 4 -9 0
-56 -2 4 11 0
-57 -2 5 -9 0
-57 -2 5 12 0
-58 -2 6 -9 0
-58 -2 6 13 0
-59 -3 4 -10 0
-59 -3 4 11 0
-60 -3 5 -10 0
-60 -3 5 12 0
-61 -3 6 -10 0
-61 -3 6 13 0
-62 -4 5 -11 0
-62 -4 5 12 0
-63 -4 6 -11 0
-63 -4 6 13 0
-64 -5 6 -12 0
-64 -5 6 13 0
-162 -54 0
-161 162 0
-53 162 0
-161 -53 0
-160 161 0
-52 161 0
-160 -52 0
-50 160 0
-51 160 0
-50 -51 0
-158 -58 0
-157 158 0
-57 158 0
-157 -57 0
-55 157 0
-56 157 0
-55 -56 0
-50 -58 0
-50 -57 0
-50 -56 0
-50 -55 0
-155 -61 0
-59 155 0
-60 155 0
-59 -60 0
-154 -61 0
-154 -60 0
-154 -59 0
-51 154 0
-55 154 0
-51 -55 0
-62 -63 0
-152 -63 0
-152 -62 0
-151 152 0
-59 152 0
-151 -59 0
-52 151 0
-56 151 0
-52 -56 0
-150 -64 0
-149 150 0
-62 150 0
-149 -62 0
-148 149 0
-60 149 0
-148 -60 0
-53 148 0
-57 148 0
-53 -57 0
-146 -64 0
-145 146 0
-63 146 0
-145 -63 0
-144 145 0
-61 145 0
-144 -61 0
-54 144 0
-58 144 0
-54 -58 0
-182 -50 0
-181 182 0
-51 182 0
-181 -51 0
-180 181 0
-52 181 0
-180 -52 0
-54 180 0
-53 180 0
-54 -53 0
-179 -50 0
-178 179 0
-55 179 0
-178 -55 0
-177 178 0
-56 178 0
-177 -56 0
-58 177 0
-57 177 0
-58 -57 0
-176 -51 0
-176 -55 0
-175 176 0
-59 176 0
-175 -59 0
-61 175 0
-60 175 0
-61 -60 0
-55 -51 0
-173 -52 0
-173 -56 0
-173 -59 0
-63 173 0
-62 173 0
-63 -62 0
-171 -52 0
-59 171 0
-56 171 0
-59 -56 0
-64 -53 0
-64 -57 0
-64 -60 0
-64 -62 0
-169 -53 0
-168 169 0
-57 169 0
-168 -57 0
-62 168 0
-60 168 0
-62 -60 0
-166 -54 0
-165 166 0
-58 166 0
-165 -58 0
-164 165 0
-61 165 0
-164 -61 0
-64 164 0
-63 164 0
-64 -63 0
8 -15 0
-8 15 258 257 256 255 254 0
-258 65 0
-258 -9 0
-258 8 0
-65 -8 9 258 0
-257 66 0
-257 -10 0
-257 8 0
-66 -8 10 257 0
-256 67 0
-256 -11 0
-256 8 0
-67 -8 11 256 0
-255 68 0
-255 -12 0
-255 8 0
-68 -8 12 255 0
-254 69 0
-254 -13 0
-254 8 0
-69 -8 13 254 0
9 -16 259 0
-9 16 263 262 261 260 0
-259 65 0
-259 -9 0
-259 8 0
-65 -8 9 259 0
-263 70 0
-263 -10 0
-263 9 0
-70 -9 10 263 0
-262 71 0
-262 -11 0
-262 9 0
-71 -9 11 262 0
-261 72 0
-261 -12 0
-261 9 0
-72 -9 12 261 0
-260 73 0
-260 -13 0
-260 9 0
-73 -9 13 260 0
10 -17 265 264 0
-10 17 268 267 266 0
-265 66 0
-265 -10 0
-265 8 0
-66 -8 10 265 0
-264 70 0
-264 -10 0
-264 9 0
-70 -9 10 264 0
-268 74 0
-268 -11 0
-268 10 0
-74 -10 11 268 0
-267 75 0
-267 -12 0
-267 10 0
-75 -10 12 267 0
-266 76 0
-266 -13 0
-266 10 0
-76 -10 13 266 0
11 -18 271 270 269 0
-11 18 273 272 0
-271 67 0
-271 -11 0
-271 8 0
-67 -8 11 271 0
-270 71 0
-270 -11 0
-270 9 0
-71 -9 11 270 0
-269 74 0
-269 -11 0
-269 10 0
-74 -10 11 269 0
-273 77 0
-273 -12 0
-273 11 0
-77 -11 12 273 0
-272 78 0
-272 -13 0
-272 11 0
-78 -11 13 272 0
12 -19 277 276 275 274 0
-12 19 278 0
-277 68 0
-277 -12 0
-277 8 0
-68 -8 12 277 0
-276 72 0
-276 -12 0
-276 9 0
-72 -9 12 276 0
-275 75 0
-275 -12 0
-275 10 0
-75 -10 12 275 0
-274 77 0
-274 -12 0
-274 11 0
-77 -11 12 274 0
-278 79 0
-278 -13 0
-278 12 0
-79 -12 13 278 0
13 -20 283 282 281 280 279 0
-13 20 0
-283 69 0
-283 -13 0
-283 8 0
-69 -8 13 283 0
-282 73 0
-282 -13 0
-282 9 0
-73 -9 13 282 0
-281 76 0
-281 -13 0
-281 10 0
-76 -10 13 281 0
-280 78 0
-280 -13 0
-280 11 0
-78 -11 13 280 0
-279 79 0
-279 -13 0
-279 12 0
-79 -12 13 279 0
-65 -8 9 -15 0
-65 -8 9 16 0
-66 -8 10 -15 0
-66 -8 10 17 0
-67 -8 11 -15 0
-67 -8 11 18 0
-68 -8 12 -15 0
-68 -8 12 19 0
-69 -8 13 -15 0
-69 -8 13 20 0
-70 -9 10 -16 0
-70 -9 10 17 0
-71 -9 11 -16 0
-71 -9 11 18 0
-72 -9 12 -16 0
-72 -9 12 19 0
-73 -9 13 -16 0
-73 -9 13 20 0
-74 -10 11 -17 0
-74 -10 11 18 0
-75 -10 12 -17 0
-75 -10 12 19 0
-76 -10 13 -17 0
-76 -10 13 20 0
-77 -11 12 -18 0
-77 -11 12 19 0
-78 -11 13 -18 0
-78 -11 13 20 0
-79 -12 13 -19 0
-79 -12 13 20 0
-232 -69 0
-231 232 0
-68 232 0
-231 -68 0
-230 231 0
-67 231 0
-230 -67 0
-65 230 0
-66 230 0
-65 -66 0
-228 -73 0
-227 228 0
-72 228 0
-227 -72 0
-70 227 0
-71 227 0
-70 -71 0
-65 -73 0
-65 -72 0
-65 -71 0
-65 -70 0
-225 -76 0
-74 225 0
-75 225 0
-74 -75 0
-224 -76 0
-224 -75 0
-224 -74 0
-66 224 0
-70 224 0
-66 -70 0
-77 -78 0
-222 -78 0
-222 -77 0
-221 222 0
-74 222 0
-221 -74 0
-67 221 0
-71 221 0
-67 -71 0
-220 -79 0
-219 220 0
-77 220 0
-219 -77 0
-218 219 0
-75 219 0
-218 -75 0
-68 218 0
-72 218 0
-68 -72 0
-216 -79 0
-215 216 0
-78 216 0
-215 -78 0
-214 215 0
-76 215 0
-214 -76 0
-69 214 0
-73 214 0
-69 -73 0
-252 -65 0
-251 252 0
-66 252 0
-251 -66 0
-250 251 0
-67 251 0
-250 -67 0
-69 250 0
-68 250 0
-69 -68 0
-249 -65 0
-248 249 0
-70 249 0
-248 -70 0
-247 248 0
-71 248 0
-247 -71 0
-73 247 0
-72 247 0
-73 -72 0
-246 -66 0
-246 -70 0
-245 246 0
-74 246 0
-245 -74 0
-76 245 0
-75 245 0
-76 -75 0
-70 -66 0
-243 -67 0
-243 -71 0
-243 -74 0
-78 243 0
-77 243 0
-78 -77 0
-241 -67 0
-74 241 0
-71 241 0
-74 -71 0
-79 -68 0
-79 -72 0
-79 -75 0
-79 -77 0
-239 -68 0
-238 239 0
-72 239 0
-238 -72 0
-77 238 0
-75 238 0
-77 -75 0
-236 -69 0
-235 236 0
-73 236 0
-235 -73 0
-234 235 0
-76 235 0
-234 -76 0
-79 234 0
-78 234 0
-79 -78 0
15 -22 0
-15 22 328 327 326 325 324 0
-328 80 0
-328 -16 0
-328 15 0
-80 -15 16 328 0
-327 81 0
-327 -17 0
-327 15 0
-81 -15 17 327 0
-326 82 0
-326 -18 0
-326 15 0
-82 -15 18 326 0
-325 83 0
-325 -19 0
-325 15 0
-83 -15 19 325 0
-324 84 0
-324 -20 0
-324 15 0
-84 -15 20 324 0
16 -23 329 0
-16 23 333 332 331 330 0
-329 80 0
-329 -16 0
-329 15 0
-80 -15 16 329 0
-333 85 0
-333 -17 0
-333 16 0
-85 -16 17 333 0
-332 86 0
-332 -18 0
-332 16 0
-86 -16 18 332 0
-331 87 0
-331 -19 0
-331 16 0
-87 -16 19 331 0
-330 88 0
-330 -20 0
-330 16 0
-88 -16 20 330 0
17 -24 335 334 0
-17 24 338 337 336 0
-335 81 0
-335 -17 0
-335 15 0
-81 -15 17 335 0
-334 85 0
-334 -17 0
-334 16 0
-85 -16 17 334 0
-338 89 0
-338 -18 0
-338 17 0
-89 -17 18 338 0
-337 90 0
-337 -19 0
-337 17 0
-90 -17 19 337 0
-336 91 0
-336 -20 0
-336 17 0
-91 -17 20 336 0
18 -25 341 340 339 0
-18 25 343 342 0
-341 82 0
-341 -18 0
-341 15 0
-82 -15 18 341 0
-340 86 0
-340 -18 0
-340 16 0
-86 -16 18 340 0
-339 89 0
-339 -18 0
-339 17 0
-89 -17 18 339 0
-343 92 0
-343 -19 0
-343 18 0
-92 -18 19 343 0
-342 93 0
-342 -20 0
-342 18 0
-93 -18 20 342 0
19 -26 347 346 345 344 0
-19 26 348 0
-347 83 0
-347 -19 0
-347 15 0
-83 -15 19 347 0
-346 87 0
-346 -19 0
-346 16 0
-87 -16 19 346 0
-345 90 0
-345 -19 0
-345 17 0
-90 -17 19 345 0
-344 92 0
-344 -19 0
-344 18 0
-92 -18 19 344 0
-348 94 0
-348 -20 0
-348 19 0
-94 -19 20 348 0
20 -27 353 352 351 350 349 0
-20 27 0
-353 84 0
-353 -20 0
-353 15 0
-84 -15 20 353 0
-352 88 0
-352 -20 0
-352 16 0
-88 -16 20 352 0
-351 91 0
-351 -20 0
-351 17 0
-91 -17 20 351 0
-350 93 0
-350 -20 0
-350 18 0
-93 -18 20 350 0
-349 94 0
-349 -20 0
-349 19 0
-94 -19 20 349 0
-80 -15 16 -22 0
-80 -15 16 23 0
-81 -15 17 -22 0
-81 -15 17 24 0
-82 -15 18 -22 0
-82 -15 18 25 0
-83 -15 19 -22 0
-83 -15 19 26 0
-84 -15 20 -22 0
-84 -15 20 27 0
-85 -16 17 -23 0
-85 -16 17 24 0
-86 -16 18 -23 0
-86 -16 18 25 0
-87 -16 19 -23 0
-87 -16 19 26 0
-88 -16 20 -23 0
-88 -16 20 27 0
-89 -17 18 -24 0
-89 -17 18 25 0
-90 -17 19 -24 0
-90 -17 19 26 0
-91 -17 20 -24 0
-91 -17 20 27 0
-92 -18 19 -25 0
-92 -18 19 26 0
-93 -18 20 -25 0
-93 -18 20 27 0
-94 -19 20 -26 0
-94 -19 20 27 0
-302 -84 0
-301 302 0
-83 302 0
-301 -83 0
-300 301 0
-82 301 0
-300 -82 0
-80 300 0
-81 300 0
-80 -81 0
-298 -88 0
-297 298 0
-87 298 0
-297 -87 0
-85 297 0
-86 297 0
-85 -86 0
-80 -88 0
-80 -87 0
-80 -86 0
-80 -85 0
-295 -91 0
-89 295 0
-90 295 0
-89 -90 0
-294 -91 0
-294 -90 0
-294 -89 0
-81 294 0
-85 294 0
-81 -85 0
-92 -93 0
-292 -93 0
-292 -92 0
-291 292 0
-89 292 0
-291 -89 0
-82 291 0
-86 291 0
-82 -86 0
-290 -94 0
-289 290 0
-92 290 0
-289 -92 0
-288 289 0
-90 289 0
-288 -90 0
-83 288 0
-87 288 0
-83 -87 0
-286 -94 0
-285 286 0
-93 286 0
-285 -93 0
-284 285 0
-91 285 0
-284 -91 0
-84 284 0
-88 284 0
-84 -88 0
-322 -80 0
-321 322 0
-81 322 0
-321 -81 0
-320 321 0
-82 321 0
-320 -82 0
-84 320 0
-83 320 0
-84 -83 0
-319 -80 0
-318 319 0
-85 319 0
-318 -85 0
-317 318 0
-86 318 0
-317 -86 0
-88 317 0
-87 317 0
-88 -87 0
-316 -81 0
-316 -85 0
-315 316 0
-89 316 0
-315 -89 0
-91 315 0
-90 315 0
-91 -90 0
-85 -81 0
-313 -82 0
-313 -86 0
-313 -89 0
-93 313 0
-92 313 0
-93 -92 0
-311 -82 0
-89 311 0
-86 311 0
-89 -86 0
-94 -83 0
-94 -87 0
-94 -90 0
-94 -92 0
-309 -83 0
-308 309 0
-87 309 0
-308 -87 0
-92 308 0
-90 308 0
-92 -90 0
-306 -84 0
-305 306 0
-88 306 0
-305 -88 0
-304 305 0
-91 305 0
-304 -91 0
-94 304 0
-93 304 0
-94 -93 0
22 -29 0
-22 29 398 397 396 395 394 0
-398 95 0
-398 -23 0
-398 22 0
-95 -22 23 398 0
-397 96 0
-397 -24 0
-397 22 0
-96 -22 24 397 0
-396 97 0
-396 -25 0
-396 22 0
-97 -22 25 396 0
-395 98 0
-395 -26 0
-395 22 0
-98 -22 26 395 0
-394 99 0
-394 -27 0
-394 22 0
-99 -22 27 394 0
23 -30 399 0
-23 30 403 402 401 400 0
-399 95 0
-399 -23 0
-399 22 0
-95 -22 23 399 0
-403 100 0
-403 -24 0
-403 23 0
-100 -23 24 403 0
-402 101 0
-402 -25 0
-402 23 0
-101 -23 25 402 0
-401 102 0
-401 -26 0
-401 23 0
-102 -23 26 401 0
-400 103 0
-400 -27 0
-400 23 0
-103 -23 27 400 0
24 -31 405 404 0
-24 31 408 407 406 0
-405 96 0
-405 -24 0
-405 22 0
-96 -22 24 405 0
-404 100 0
-404 -24 0
-404 23 0
-100 -23 24 404 0
-408 104 0
-408 -25 0
-408 24 0
-104 -24 25 408 0
-407 105 0
-407 -26 0
-407 24 0
-105 -24 26 407 0
-406 106 0
-406 -27 0
-406 24 0
-106 -24 27 406 0
25 -32 411 410 409 0
-25 32 413 412 0
-411 97 0
-411 -25 0
-411 22 0
-97 -22 25 411 0
-410 101 0
-410 -25 0
-410 23 0
-101 -23 25 410 0
-409 104 0
-409 -25 0
-409 24 0
-104 -24 25 409 0
-413 107 0
-413 -26 0
-413 25 0
-107 -25 26 413 0
-412 108 0
-412 -27 0
-412 25 0
-108 -25 27 412 0
26 -33 417 416 415 414 0
-26 33 418 0
-417 98 0
-417 -26 0
-417 22 0
-98 -22 26 417 0
-416 102 0
-416 -26 0
-416 23 0
-102 -23 26 416 0
-415 105 0
-415 -26 0
-415 24 0
-105 -24 26 415 0
-414 107 0
-414 -26 0
-414 25 0
-107 -25 26 414 0
-418 109 0
-418 -27 0
-418 26 0
-109 -26 27 418 0
27 -34 423 422 421 420 419 0
-27 34 0
-423 99 0
-423 -27 0
-423 22 0
-99 -22 27 423 0
-422 103 0
-422 -27 0
-422 23 0
-103 -23 27 422 0
-421 106 0
-421 -27 0
-421 24 0
-106 -24 27 421 0
-420 108 0
-420 -27 0
-420 25 0
-108 -25 27 420 0
-419 109 0
-419 -27 0
-419 26 0
-109 -26 27 419 0
-95 -22 23 -29 0
-95 -22 23 30 0
-96 -22 24 -29 0
-96 -22 24 31 0
-97 -22 25 -29 0
-97 -22 25 32 0
-98 -22 26 -29 0
-98 -22 26 33 0
-99 -22 27 -29 0
-99 -22 27 34 0
-100 -23 24 -30 0
-100 -23 24 31 0
-101 -23 25 -30 0
-101 -23 25 32 0
-102 -23 26 -30 0
-102 -23 26 33 0
-103 -23 27 -30 0
-103 -23 27 34 0
-104 -24 25 -31 0
-104 -24 25 32 0
-105 -24 26 -31 0
-105 -24 26 33 0
-106 -24 27 -31 0
-106 -24 27 34 0
-107 -25 26 -32 0
-107 -25 26 33 0
-108 -25 27 -32 0
-108 -25 27 34 0
-109 -26 27 -33 0
-109 -26 27 34 0
-372 -99 0
-371 372 0
-98 372 0
-371 -98 0
-370 371 0
-97 371 0
-370 -97 0
-95 370 0
-96 370 0
-95 -96 0
-368 -103 0
-367 368 0
-102 368 0
-367 -102 0
-100 367 0
-101 367 0
-100 -101 0
-95 -103 0
-95 -102 0
-95 -101 0
-95 -100 0
-365 -106 0
-104 365 0
-105 365 0
-104 -105 0
-364 -106 0
-364 -105 0
-364 -104 0
-96 364 0
-100 364 0
-96 -100 0
-107 -108 0
-362 -108 0
-362 -107 0
-361 362 0
-104 362 0
-361 -104 0
-97 361 0
-101 361 0
-97 -101 0
-360 -109 0
-359 360 0
-107 360 0
-359 -107 0
-358 359 0
-105 359 0
-358 -105 0
-98 358 0
-102 358 0
-98 -102 0
-356 -109 0
-355 356 0
-108 356 0
-355 -108 0
-354 355 0
-106 355 0
-354 -106 0
-99 354 0
-103 354 0
-99 -103 0
-392 -95 0
-391 392 0
-96 392 0
-391 -96 0
-390 391 0
-97 391 0
-390 -97 0
-99 390 0
-98 390 0
-99 -98 0
-389 -95 0
-388 389 0
-100 389 0
-388 -100 0
-387 388 0
-101 388 0
-387 -101 0
-103 387 0
-102 387 0
-103 -102 0
-386 -96 0
-386 -100 0
-385 386 0
-104 386 0
-385 -104 0
-106 385 0
-105 385 0
-106 -105 0
-100 -96 0
-383 -97 0
-383 -101 0
-383 -104 0
-108 383 0
-107 383 0
-108 -107 0
-381 -97 0
-104 381 0
-101 381 0
-104 -101 0
-109 -98 0
-109 -102 0
-109 -105 0
-109 -107 0
-379 -98 0
-378 379 0
-102 379 0
-378 -102 0
-107 378 0
-105 378 0
-107 -105 0
-376 -99 0
-375 376 0
-103 376 0
-375 -103 0
-374 375 0
-106 375 0
-374 -106 0
-109 374 0
-108 374 0
-109 -108 0
29 -36 0
-29 36 468 467 466 465 464 0
-468 110 0
-468 -30 0
-468 29 0
-110 -29 30 468 0
-467 111 0
-467 -31 0
-467 29 0
-111 -29 31 467 0
-466 112 0
-466 -32 0
-466 29 0
-112 -29 32 466 0
-465 113 0
-465 -33 0
-465 29 0
-113 -29 33 465 0
-464 114 0
-464 -34 0
-464 29 0
-114 -29 34 464 0
30 -37 469 0
-30 37 473 472 471 470 0
-469 110 0
-469 -30 0
-469 29 0
-110 -29 30 469 0
-473 115 0
-473 -31 0
-473 30 0
-115 -30 31 473 0
-472 116 0
-472 -32 0
-472 30 0
-116 -30 32 472 0
-471 117 0
-471 -33 0
-471 30 0
-117 -30 33 471 0
-470 118 0
-470 -34 0
-470 30 0
-118 -30 34 470 0
31 -38 475 474 0
-31 38 478 477 476 0
-475 111 0
-475 -31 0
-475 29 0
-111 -29 31 475 0
-474 115 0
-474 -31 0
-474 30 0
-115 -30 31 474 0
-478 119 0
-478 -32 0
-478 31 0
-119 -31 32 478 0
-477 120 0
-477 -33 0
-477 31 0
-120 -31 33 477 0
-476 121 0
-476 -34 0
-476 31 0
-121 -31 34 476 0
32 -39 481 480 479 0
-32 39 483 482 0
-481 112 0
-481 -32 0
-481 29 0
-112 -29 32 481 0
-480 116 0
-480 -32 0
-480 30 0
-116 -30 32 480 0
-479 119 0
-479 -32 0
-479 31 0
-119 -31 32 479 0
-483 122 0
-483 -33 0
-483 32 0
-122 -32 33 483 0
-482 123 0
-482 -34 0
-482 32 0
-123 -32 34 482 0
33 -40 487 486 485 484 0
-33 40 488 0
-487 113 0
-487 -33 0
-487 29 0
-113 -29 33 487 0
-486 117 0
-486 -33 0
-486 30 0
-117 -30 33 486 0
-485 120 0
-485 -33 0
-485 31 0
-120 -31 33 485 0
-484 122 0
-484 -33 0
-484 32 0
-122 -32 33 484 0
-488 124 0
-488 -34 0
-488 33 0
-124 -33 34 488 0
34 -41 493 492 491 490 489 0
-34 41 0
-493 114 0
-493 -34 0
-493 29 0
-114 -29 34 493 0
-492 118 0
-492 -34 0
-492 30 0
-118 -30 34 492 0
-491 121 0
-491 -34 0
-491 31 0
-121 -31 34 491 0
-490 123 0
-490 -34 0
-490 32 0
-123 -32 34 490 0
-489 124 0
-489 -34 0
-489 33 0
-124 -33 34 489 0
-110 -29 30 -36 0
-110 -29 30 37 0
-111 -29 31 -36 0
-111 -29 31 38 0
-112 -29 32 -36 0
-112 -29 32 39 0
-113 -29 33 -36 0
-113 -29 33 40 0
-114 -29 34 -36 0
-114 -29 34 41 0
-115 -30 31 -37 0
-115 -30 31 38 0
-116 -30 32 -37 0
-116 -30 32 39 0
-117 -30 33 -37 0
-117 -30 33 40 0
-118 -30 34 -37 0
-118 -30 34 41 0
-119 -31 32 -38 0
-119 -31 32 39 0
-120 -31 33 -38 0
-120 -31 33 40 0
-121 -31 34 -38 0
-121 -31 34 41 0
-122 -32 33 -39 0
-122 -32 33 40 0
-123 -32 34 -39 0
-123 -32 34 41 0
-124 -33 34 -40 0
-124 -33 34 41 0
-442 -114 0
-441 442 0
-113 442 0
-441 -113 0
-440 441 0
-112 441 0
-440 -112 0
-110 440 0
-111 440 0
-110 -111 0
-438 -118 0
-437 438 0
-117 438 0
-437 -117 0
-115 437 0
-116 437 0
-115 -116 0
-110 -118 0
-110 -117 0
-110 -116 0
-110 -115 0
-435 -121 0
-119 435 0
-120 435 0
-119 -120 0
-434 -121 0
-434 -120 0
-434 -119 0
-111 434 0
-115 434 0
-111 -115 0
-122 -123 0
-432 -123 0
-432 -122 0
-431 432 0
-119 432 0
-431 -119 0
-112 431 0
-116 431 0
-112 -116 0
-430 -124 0
-429 430 0
-122 430 0
-429 -122 0
-428 429 0
-120 429 0
-428 -120 0
-113 428 0
-117 428 0
-113 -117 0
-426 -124 0
-425 426 0
-123 426 0
-425 -123 0
-424 425 0
-121 425 0
-424 -121 0
-114 424 0
-118 424 0
-114 -118 0
-462 -110 0
-461 462 0
-111 462 0
-461 -111 0
-460 461 0
-112 461 0
-460 -112 0
-114 460 0
-113 460 0
-114 -113 0
-459 -110 0
-458 459 0
-115 459 0
-458 -115 0
-457 458 0
-116 458 0
-457 -116 0
-118 457 0
-117 457 0
-118 -117 0
-456 -111 0
-456 -115 0
-455 456 0
-119 456 0
-455 -119 0
-121 455 0
-120 455 0
-121 -120 0
-115 -111 0
-453 -112 0
-453 -116 0
-453 -119 0
-123 453 0
-122 453 0
-123 -122 0
-451 -112 0
-119 451 0
-116 451 0
-119 -116 0
-124 -113 0
-124 -117 0
-124 -120 0
-124 -122 0
-449 -113 0
-448 449 0
-117 449 0
-448 -117 0
-122 448 0
-120 448 0
-122 -120 0
-446 -114 0
-445 446 0
-118 446 0
-445 -118 0
-444 445 0
-121 445 0
-444 -121 0
-124 444 0
-123 444 0
-124 -123 0
36 -43 0
-36 43 538 537 536 535 534 0
-538 125 0
-538 -37 0
-538 36 0
-125 -36 37 538 0
-537 126 0
-537 -38 0
-537 36 0
-126 -36 38 537 0
-536 127 0
-536 -39 0
-536 36 0
-127 -36 39 536 0
-535 128 0
-535 -40 0
-535 36 0
-128 -36 40 535 0
-534 129 0
-534 -41 0
-534 36 0
-129 -36 41 534 0
37 -44 539 0
-37 44 543 542 541 540 0
-539 125 0
-539 -37 0
-539 36 0
-125 -36 37 539 0
-543 130 0
-543 -38 0
-543 37 0
-130 -37 38 543 0
-542 131 0
-542 -39 0
-542 37 0
-131 -37 39 542 0
-541 132 0
-541 -40 0
-541 37 0
-132 -37 40 541 0
-540 133 0
-540 -41 0
-540 37 0
-133 -37 41 540 0
38 -45 545 544 0
-38 45 548 547 546 0
-545 126 0
-545 -38 0
-545 36 0
-126 -36 38 545 0
-544 130 0
-544 -38 0
-544 37 0
-130 -37 38 544 0
-548 134 0
-548 -39 0
-548 38 0
-134 -38 39 548 0
-547 135 0
-547 -40 0
-547 38 0
-135 -38 40 547 0
-546 136 0
-546 -41 0
-546 38 0
-136 -38 41 546 0
39 -46 551 550 549 0
-39 46 553 552 0
-551 127 0
-551 -39 0
-551 36 0
-127 -36 39 551 0
-550 131 0
-550 -39 0
-550 37 0
-131 -37 39 550 0
-549 134 0
-549 -39 0
-549 38 0
-134 -38 39 549 0
-553 137 0
-553 -40 0
-553 39 0
-137 -39 40 553 0
-552 138 0
-552 -41 0
-552 39 0
-138 -39 41 552 0
40 -47 557 556 555 554 0
-40 47 558 0
-557 128 0
-557 -40 0
-557 36 0
-128 -36 40 557 0
-556 132 0
-556 -40 0
-556 37 0
-132 -37 40 556 0
-555 135 0
-555 -40 0
-555 38 0
-135 -38 40 555 0
-554 137 0
-554 -40 0
-554 39 0
-137 -39 40 554 0
-558 139 0
-558 -41 0
-558 40 0
-139 -40 41 558 0
41 -48 563 562 561 560 559 0
-41 48 0
-563 129 0
-563 -41 0
-563 36 0
-129 -36 41 563 0
-562 133 0
-562 -41 0
-562 37 0
-133 -37 41 562 0
-561 136 0
-561 -41 0
-561 38 0
-136 -38 41 561 0
-560 138 0
-560 -41 0
-560 39 0
-138 -39 41 560 0
-559 139 0
-559 -41 0
-559 40 0
-139 -40 41 559 0
-125 -36 37 -43 0
-125 -36 37 44 0
-126 -36 38 -43 0
-126 -36 38 45 0
-127 -36 39 -43 0
-127 -36 39 46 0
-128 -36 40 -43 0
-128 -36 40 47 0
-129 -36 41 -43 0
-129 -36 41 48 0
-130 -37 38 -44 0
-130 -37 38 45 0
-131 -37 39 -44 0
-131 -37 39 46 0
-132 -37 40 -44 0
-132 -37 40 47 0
-133 -37 41 -44 0
-133 -37 41 48 0
-134 -38 39 -45 0
-134 -38 39 46 0
-135 -38 40 -45 0
-135 -38 40 47 0
-136 -38 41 -45 0
-136 -38 41 48 0
-137 -39 40 -46 0
-137 -39 40 47 0
-138 -39 41 -46 0
-138 -39 41 48 0
-139 -40 41 -47 0
-139 -40 41 48 0
-512 -129 0
-511 512 0
-128 512 0
-511 -128 0
-510 511 0
-127 511 0
-510 -127 0
-125 510 0
-126 510 0
-125 -126 0
-508 -133 0
-507 508 0
-132 508 0
-507 -132 0
-130 507 0
-131 507 0
-130 -131 0
-125 -133 0
-125 -132 0
-125 -131 0
-125 -130 0
-505 -136 0
-134 505 0
-135 505 0
-134 -135 0
-504 -136 0
-504 -135 0
-504 -134 0
-126 504 0
-130 504 0
-126 -130 0
-137 -138 0
-502 -138 0
-502 -137 0
-501 502 0
-134 502 0
-501 -134 0
-127 501 0
-131 501 0
-127 -131 0
-500 -139 0
-499 500 0
-137 500 0
-499 -137 0
-498 499 0
-135 499 0
-498 -135 0
-128 498 0
-132 498 0
-128 -132 0
-496 -139 0
-495 496 0
-138 496 0
-495 -138 0
-494 495 0
-136 495 0
-494 -136 0
-129 494 0
-133 494 0
-129 -133 0
-532 -125 0
-531 532 0
-126 532 0
-531 -126 0
-530 531 0
-127 531 0
-530 -127 0
-129 530 0
-128 530 0
-129 -128 0
-529 -125 0
-528 529 0
-130 529 0
-528 -130 0
-527 528 0
-131 528 0
-527 -131 0
-133 527 0
-132 527 0
-133 -132 0
-526 -126 0
-526 -130 0
-525 526 0
-134 526 0
-525 -134 0
-136 525 0
-135 525 0
-136 -135 0
-130 -126 0
-523 -127 0
-523 -131 0
-523 -134 0
-138 523 0
-137 523 0
-138 -137 0
-521 -127 0
-134 521 0
-131 521 0
-134 -131 0
-139 -128 0
-139 -132 0
-139 -135 0
-139 -137 0
-519 -128 0
-518 519 0
-132 519 0
-518 -132 0
-137 518 0
-135 518 0
-137 -135 0
-516 -129 0
-515 516 0
-133 516 0
-515 -133 0
-514 515 0
-136 515 0
-514 -136 0
-139 514 0
-138 514 0
-139 -138 0
